0 1
1 2
2 3
3 4
4 5
5 6
6 7
7 8
8 9
9 10
11 12
12 13
13 14
14 15
15 16
16 17
17 18
18 19
19 20
20 21
22 23
23 24
24 25
25 26
26 27
27 28
28 29
29 30
30 31
31 32
33 34
34 35
35 36
36 37
37 38
38 39
39 40
40 41
41 42
42 43
44 45
45 46
46 47
47 48
48 49
49 50
50 51
51 52
52 53
53 54
55 56
56 57
57 58
58 59
59 60
60 61
61 62
62 63
63 64
64 65
66 67
67 68
68 69
69 70
70 71
71 72
72 73
73 74
74 75
75 76
77 78
78 79
79 80
80 81
81 82
82 83
83 84
84 85
85 86
86 87
88 89
89 90
90 91
91 92
92 93
93 94
94 95
95 96
96 97
97 98
99 100
100 101
101 102
102 103
103 104
104 105
105 106
106 107
107 108
108 109
110 111
111 112
112 113
113 114
114 115
115 116
116 117
117 118
118 119
119 120
0 11
11 22
22 33
33 44
44 55
55 66
66 77
77 88
88 99
99 110
1 12
12 23
23 34
34 45
45 56
56 67
67 78
78 89
89 100
100 111
2 13
13 24
24 35
35 46
46 57
57 68
68 79
79 90
90 101
101 112
3 14
14 25
25 36
36 47
47 58
58 69
69 80
80 91
91 102
102 113
4 15
15 26
26 37
37 48
48 59
59 70
70 81
81 92
92 103
103 114
5 16
16 27
27 38
38 49
49 60
60 71
71 82
82 93
93 104
104 115
6 17
17 28
28 39
39 50
50 61
61 72
72 83
83 94
94 105
105 116
7 18
18 29
29 40
40 51
51 62
62 73
73 84
84 95
95 106
106 117
8 19
19 30
30 41
41 52
52 63
63 74
74 85
85 96
96 107
107 118
9 20
20 31
31 42
42 53
53 64
64 75
75 86
86 97
97 108
108 119
10 21
21 32
32 43
43 54
54 65
65 76
76 87
87 98
98 109
109 120
0 12
2 12
2 14
4 14
4 16
6 16
6 18
8 18
8 20
10 20
12 22
12 24
14 24
14 26
16 26
16 28
18 28
18 30
20 30
20 32
22 34
24 34
24 36
26 36
26 38
28 38
28 40
30 40
30 42
32 42
34 44
34 46
36 46
36 48
38 48
38 50
40 50
40 52
42 52
42 54
44 56
46 56
46 58
48 58
48 60
50 60
50 62
52 62
52 64
54 64
56 66
56 68
58 68
58 70
60 70
60 72
62 72
62 74
64 74
64 76
66 78
68 78
68 80
70 80
70 82
72 82
72 84
74 84
74 86
76 86
78 88
78 90
80 90
80 92
82 92
82 94
84 94
84 96
86 96
86 98
88 100
90 100
90 102
92 102
92 104
94 104
94 106
96 106
96 108
98 108
100 110
100 112
102 112
102 114
104 114
104 116
106 116
106 118
108 118
108 120
